200
150
120
120
120
119
119
118
118
117
117
116
116
115
115
114
114
113
112
112
112
111
110
110
109
109
109
109
108
108
108
108
108
107
107
106
105
105
102
102
102
102
101
101
100
99
98
98
97
96
96
95
94
93
90
89
89
89
88
87
87
87
85
85
85
84
84
84
84
84
83
82
81
81
81
80
80
79
79
79
78
77
76
76
76
76
76
75
75
74
74
74
74
74
73
73
72
72
71
71
71
70
70
70
67
67
65
65
65
65
64
63
62
62
62
61
60
60
60
59
58
58
58
58
58
57
57
57
57
57
56
56
56
56
56
55
55
55
55
54
54
54
52
52
52
52
51
51
51
51
50
49
49
49
49
48
48
46
46
46
46
46
46
45
45
44
43
43
42
42
42
41
41
41
41
41
40
40
39
39
39
39
39
39
37
37
37
37
36
35
34
34
34
34
33
33
33
32
32
31
30
30
